23258 58228
55878 63160
37063 9420
24820 25089
669 47370
10949 40137
51229 6764
36499 16076
54972 43111
23559 35813
30420 57292
57942 20432
45507 58083
40947 36435
51354 38542
49698 55333
51161 8079
33327 16455
16279 7706
44761 22722
60462 51354
30689 7916
62237 33775
10051 1655
30877 45188
9492 6639
65081 32642
7809 4614
10301 12457
53906 30786
50203 60068
21789 30594
54970 22163
37300 4519
47821 56864
30889 13155
29097 56420
12937 18497
52838 61617
56649 49065
55610 45655
26248 55489
25946 46113
65222 41306
33116 10036
22058 3159
14193 53694
2177 18268
26752 18712
2332 55280
51699 29706
43391 62244
37038 59717
8865 19528
32427 111
6665 38529
12560 10741
56155 63758
63566 45918
15219 20095
33371 62483
30501 10901
27604 10786
61740 45883
35848 49300
6941 38290
49569 7442
11517 27999
41095 41708
54025 21878
51329 24024
55613 50785
